CPLEX 12.4.0.0: timing=1
varsel=4
mipdisplay=4
timelimit=7200
MIP Presolve eliminated 104125 rows and 630 columns.
MIP Presolve modified 5950 coefficients.
Reduced MIP has 19635 rows, 595 columns, and 58905 nonzeros.
Reduced MIP has 595 binaries, 0 generals, 0 SOSs, and 0 indicators.
Probing time =    0.01 sec.
Found feasible solution after 7.86 sec.  Objective = 0.0000
Probing time =    0.11 sec.
MIP emphasis: balance optimality and feasibility.
MIP search method: dynamic search.
Parallel mode: deterministic, using up to 4 threads.
Root relaxation solution time =    1.25 sec.

        Nodes                                         Cuts/
   Node  Left     Objective  IInf  Best Integer    Best Bound    ItCnt     Gap

*     0+    0                            0.0000                   2208     --- 
*     0     0      integral     0        0.2704        0.2704     2208    0.00%
Elapsed real time =   9.34 sec. (tree size =  0.00 MB)

Root node processing (before b&c):
  Real time             =    1.49
Parallel b&c, 4 threads:
  Real time             =    0.00
  Sync time (average)   =    0.00
  Wait time (average)   =    0.00
                          -------
Total (root+branch&cut) =    1.49 sec.

Times (seconds):
Input =  0.159976
Solve =  3.77942
Output = 0.157976
CPLEX 12.4.0.0: optimal integer solution; objective 0.270442871
2208 MIP simplex iterations
0 branch-and-bound nodes
_total_solve_user_time = 3.98739

t [*,*]
:    1   2   3   4   5   6   7   8   9  10  11  12  13  14  15  16  17  18  19 :=
1    0   0   0   0   1   1   1   1   1   1   1   1   0   0   0   0   0   1   1
2    0   0   0   0   1   1   1   1   1   1   1   1   0   0   0   0   0   1   1
3    0   0   0   0   1   1   1   1   1   1   1   1   0   0   0   0   0   1   1
4    0   0   0   0   1   1   1   1   1   1   1   1   0   0   0   0   0   1   1
5    1   1   1   1   0   0   0   0   0   0   0   0   1   1   1   1   1   0   0
6    1   1   1   1   0   0   0   0   0   0   0   0   1   1   1   1   1   0   0
7    1   1   1   1   0   0   0   0   0   0   0   0   1   1   1   1   1   0   0
8    1   1   1   1   0   0   0   0   0   0   0   0   1   1   1   1   1   0   0
9    1   1   1   1   0   0   0   0   0   0   0   0   1   1   1   1   1   0   0
10   1   1   1   1   0   0   0   0   0   0   0   0   1   1   1   1   1   0   0
11   1   1   1   1   0   0   0   0   0   0   0   0   1   1   1   1   1   0   0
12   1   1   1   1   0   0   0   0   0   0   0   0   1   1   1   1   1   0   0
13   0   0   0   0   1   1   1   1   1   1   1   1   0   0   0   0   0   1   1
14   0   0   0   0   1   1   1   1   1   1   1   1   0   0   0   0   0   1   1
15   0   0   0   0   1   1   1   1   1   1   1   1   0   0   0   0   0   1   1
16   0   0   0   0   1   1   1   1   1   1   1   1   0   0   0   0   0   1   1
17   0   0   0   0   1   1   1   1   1   1   1   1   0   0   0   0   0   1   1
18   1   1   1   1   0   0   0   0   0   0   0   0   1   1   1   1   1   0   0
19   1   1   1   1   0   0   0   0   0   0   0   0   1   1   1   1   1   0   0
20   1   1   1   1   0   0   0   0   0   0   0   0   1   1   1   1   1   0   0
21   0   0   0   0   1   1   1   1   1   1   1   1   0   0   0   0   0   1   1
22   1   1   1   1   0   0   0   0   0   0   0   0   1   1   1   1   1   0   0
23   1   1   1   1   0   0   0   0   0   0   0   0   1   1   1   1   1   0   0
24   0   0   0   0   1   1   1   1   1   1   1   1   0   0   0   0   0   1   1
25   0   0   0   0   1   1   1   1   1   1   1   1   0   0   0   0   0   1   1
26   0   0   0   0   1   1   1   1   1   1   1   1   0   0   0   0   0   1   1
27   1   1   1   1   0   0   0   0   0   0   0   0   1   1   1   1   1   0   0
28   1   1   1   1   0   0   0   0   0   0   0   0   1   1   1   1   1   0   0
29   1   1   1   1   0   0   0   0   0   0   0   0   1   1   1   1   1   0   0
30   1   1   1   1   0   0   0   0   0   0   0   0   1   1   1   1   1   0   0
31   0   0   0   0   1   1   1   1   1   1   1   1   0   0   0   0   0   1   1
32   0   0   0   0   1   1   1   1   1   1   1   1   0   0   0   0   0   1   1
33   0   0   0   0   1   1   1   1   1   1   1   1   0   0   0   0   0   1   1
34   0   0   0   0   1   1   1   1   1   1   1   1   0   0   0   0   0   1   1
35   0   0   0   0   1   1   1   1   1   1   1   1   0   0   0   0   0   1   1

:   20  21  22  23  24  25  26  27  28  29  30  31  32  33  34  35    :=
1    1   0   1   1   0   0   0   1   1   1   1   0   0   0   0   0
2    1   0   1   1   0   0   0   1   1   1   1   0   0   0   0   0
3    1   0   1   1   0   0   0   1   1   1   1   0   0   0   0   0
4    1   0   1   1   0   0   0   1   1   1   1   0   0   0   0   0
5    0   1   0   0   1   1   1   0   0   0   0   1   1   1   1   1
6    0   1   0   0   1   1   1   0   0   0   0   1   1   1   1   1
7    0   1   0   0   1   1   1   0   0   0   0   1   1   1   1   1
8    0   1   0   0   1   1   1   0   0   0   0   1   1   1   1   1
9    0   1   0   0   1   1   1   0   0   0   0   1   1   1   1   1
10   0   1   0   0   1   1   1   0   0   0   0   1   1   1   1   1
11   0   1   0   0   1   1   1   0   0   0   0   1   1   1   1   1
12   0   1   0   0   1   1   1   0   0   0   0   1   1   1   1   1
13   1   0   1   1   0   0   0   1   1   1   1   0   0   0   0   0
14   1   0   1   1   0   0   0   1   1   1   1   0   0   0   0   0
15   1   0   1   1   0   0   0   1   1   1   1   0   0   0   0   0
16   1   0   1   1   0   0   0   1   1   1   1   0   0   0   0   0
17   1   0   1   1   0   0   0   1   1   1   1   0   0   0   0   0
18   0   1   0   0   1   1   1   0   0   0   0   1   1   1   1   1
19   0   1   0   0   1   1   1   0   0   0   0   1   1   1   1   1
20   0   1   0   0   1   1   1   0   0   0   0   1   1   1   1   1
21   1   0   1   1   0   0   0   1   1   1   1   0   0   0   0   0
22   0   1   0   0   1   1   1   0   0   0   0   1   1   1   1   1
23   0   1   0   0   1   1   1   0   0   0   0   1   1   1   1   1
24   1   0   1   1   0   0   0   1   1   1   1   0   0   0   0   0
25   1   0   1   1   0   0   0   1   1   1   1   0   0   0   0   0
26   1   0   1   1   0   0   0   1   1   1   1   0   0   0   0   0
27   0   1   0   0   1   1   1   0   0   0   0   1   1   1   1   1
28   0   1   0   0   1   1   1   0   0   0   0   1   1   1   1   1
29   0   1   0   0   1   1   1   0   0   0   0   1   1   1   1   1
30   0   1   0   0   1   1   1   0   0   0   0   1   1   1   1   1
31   1   0   1   1   0   0   0   1   1   1   1   0   0   0   0   0
32   1   0   1   1   0   0   0   1   1   1   1   0   0   0   0   0
33   1   0   1   1   0   0   0   1   1   1   1   0   0   0   0   0
34   1   0   1   1   0   0   0   1   1   1   1   0   0   0   0   0
35   1   0   1   1   0   0   0   1   1   1   1   0   0   0   0   0
;

